NAME : mEgtspf.pid13103.gtsp.161061381.tour
COMMENT : Length = 161061381
COMMENT : Found by LKH [Keld Helsgaun] Tue Apr 22 00:30:02 2025
TYPE : TOUR
DIMENSION : 90
TOUR_SECTION
1
78
75
76
77
2
74
71
72
73
33
34
31
32
3
7
86
83
84
85
39
40
41
42
23
24
25
26
43
44
45
46
60
61
62
59
27
28
29
30
51
52
53
54
81
82
79
80
50
47
48
49
15
16
17
18
70
67
68
69
58
55
56
57
4
13
14
11
12
88
89
90
87
65
66
63
64
5
37
38
35
36
10
9
8
19
20
21
22
6
-1
EOF
